
******************************************************************************
This program contains Ipopt, a library for large-scale nonlinear optimization.
 Ipopt is released as open source code under the Eclipse Public License (EPL).
         For more information visit http://projects.coin-or.org/Ipopt
******************************************************************************

This is Ipopt version 3.12.6, running with linear solver ma57.

Number of nonzeros in equality constraint Jacobian...:        0
Number of nonzeros in inequality constraint Jacobian.:    16031
Number of nonzeros in Lagrangian Hessian.............:     1488

Total number of variables............................:     1489
                     variables with only lower bounds:        1
                variables with lower and upper bounds:        0
                     variables with only upper bounds:        0
Total number of equality constraints.................:        0
Total number of inequality constraints...............:       75
        inequality constraints with only lower bounds:        0
   inequality constraints with lower and upper bounds:        0
        inequality constraints with only upper bounds:       75

iter    objective    inf_pr   inf_du lg(mu)  ||d||  lg(rg) alpha_du alpha_pr  ls
   0 -9.9999900e-03 1.00e-02 1.00e+00  -1.0 0.00e+00    -  0.00e+00 0.00e+00   0
   1 -4.9599393e-03 0.00e+00 1.05e-02  -1.0 1.00e-01    -  9.90e-01 1.00e+00f  1
   2 -2.3327308e-01 0.00e+00 1.95e-01  -2.5 3.85e-01    -  4.02e-01 1.00e+00f  1
   3 -4.6481365e-01 0.00e+00 2.83e-08  -2.5 3.10e-01    -  1.00e+00 1.00e+00f  1
   4 -7.1319767e-01 0.00e+00 3.11e-03  -3.8 5.29e-01    -  6.94e-01 9.24e-01f  1
   5 -7.3474605e-01 0.00e+00 1.50e-09  -3.8 1.75e-01    -  1.00e+00 1.00e+00f  1
   6 -7.4537524e-01 0.00e+00 2.90e-05  -5.7 1.26e-01    -  9.97e-01 9.70e-01f  1
   7 -7.4593490e-01 0.00e+00 1.84e-11  -5.7 5.55e-02    -  1.00e+00 1.00e+00f  1
   8 -7.4597237e-01 0.00e+00 1.84e-11  -5.7 2.80e-02    -  1.00e+00 1.00e+00f  1
   9 -7.4608922e-01 0.00e+00 3.15e-07  -8.6 1.65e-02    -  9.97e-01 1.00e+00f  1
iter    objective    inf_pr   inf_du lg(mu)  ||d||  lg(rg) alpha_du alpha_pr  ls
  10 -7.4609018e-01 0.00e+00 2.60e-14  -8.6 8.36e-03    -  1.00e+00 1.00e+00f  1
  11 -7.4609041e-01 0.00e+00 2.51e-14  -8.6 4.12e-03    -  1.00e+00 1.00e+00f  1
  12 -7.4609048e-01 0.00e+00 2.51e-14  -8.6 1.91e-03    -  1.00e+00 1.00e+00h  1
  13 -7.4609050e-01 0.00e+00 2.53e-14  -8.6 7.18e-04    -  1.00e+00 1.00e+00h  1

Number of Iterations....: 13

                                   (scaled)                 (unscaled)
Objective...............:  -7.4609050055014448e-01   -7.4609050055014448e-01
Dual infeasibility......:   2.5251371489221019e-14    2.5251371489221019e-14
Constraint violation....:   0.0000000000000000e+00    0.0000000000000000e+00
Complementarity.........:   6.1851218488104394e-09    6.1851218488104394e-09
Overall NLP error.......:   6.1851218488104394e-09    6.1851218488104394e-09


Number of objective function evaluations             = 14
Number of objective gradient evaluations             = 14
Number of equality constraint evaluations            = 0
Number of inequality constraint evaluations          = 14
Number of equality constraint Jacobian evaluations   = 0
Number of inequality constraint Jacobian evaluations = 14
Number of Lagrangian Hessian evaluations             = 13
Total CPU secs in IPOPT (w/o function evaluations)   =      0.060
Total CPU secs in NLP function evaluations           =      0.010

EXIT: Optimal Solution Found.

************************ CUTEst statistics ************************


 Package used            :  IPOPT
 Problem                 :  PRIMAL4   
 # variables             =            1489
 # constraints           =              75
 # objective functions   =        0.2900000E+02
 # objective gradients   =        0.1500000E+02
 # objective Hessians    =        0.1400000E+02
 # Hessian-vector prdct  =        0.0000000E+00
 # constraints functions =        0.3000000E+02
 # constraints gradients =        0.1600000E+02
 # constraints Hessians  =        0.1400000E+02
 Exit code               =               0
 Final f                 =  -0.7460905E+00
 Set up time             =            0.03 seconds
 Solve time              =            0.21 seconds


******************************************************************

System Time =       0.0520000011 s.
